NAME /Users/henri/Research/solvers/instances/idol-instances/robust/collection/spp_dkp_Lefebvre_et_al_2026/shortest_path_3_7/uncertainty_sets/discrete_knapsack
ROWS
 N  OBJ
 L  primal_lower
COLUMNS
    MARKER    'MARKER'                 'INTORG'
    y[0,1]     OBJ        0
    y[0,1]     primal_lower -3.46
    y[0,2]     OBJ        0
    y[0,2]     primal_lower -2.84
    y[1,0]     OBJ        0
    y[1,0]     primal_lower -10.65
    y[1,2]     OBJ        0
    y[1,2]     primal_lower -10.25
    y[2,0]     OBJ        0
    y[2,0]     primal_lower -7.86
    y[2,1]     OBJ        0
    y[2,1]     primal_lower -6.52
    u[0,1]     OBJ        0
    u[0,1]     primal_lower 69
    u[0,2]     OBJ        0
    u[0,2]     primal_lower 2
    u[1,0]     OBJ        0
    u[1,0]     primal_lower 66
    u[1,2]     OBJ        0
    u[1,2]     primal_lower 18
    u[2,0]     OBJ        0
    u[2,0]     primal_lower 4
    u[2,1]     OBJ        0
    u[2,1]     primal_lower 68
    MARKER    'MARKER'                 'INTEND'
RHS
    RHS       primal_lower 69
BOUNDS
 LI BND       y[0,1]     0
 UI BND       y[0,1]     1
 LI BND       y[0,2]     0
 UI BND       y[0,2]     1
 LI BND       y[1,0]     0
 UI BND       y[1,0]     1
 LI BND       y[1,2]     0
 UI BND       y[1,2]     1
 LI BND       y[2,0]     0
 UI BND       y[2,0]     1
 LI BND       y[2,1]     0
 UI BND       y[2,1]     1
 LI BND       u[0,1]     0
 UI BND       u[0,1]     1
 LI BND       u[0,2]     0
 UI BND       u[0,2]     1
 LI BND       u[1,0]     0
 UI BND       u[1,0]     1
 LI BND       u[1,2]     0
 UI BND       u[1,2]     1
 LI BND       u[2,0]     0
 UI BND       u[2,0]     1
 LI BND       u[2,1]     0
 UI BND       u[2,1]     1
ENDATA
